************************************************************************
file with basedata            : mm47_.bas
initial value random generator: 2114390120
************************************************************************
projects                      :  1
jobs (incl. supersource/sink ):  12
horizon                       :  77
RESOURCES
  - renewable                 :  2   R
  - nonrenewable              :  2   N
  - doubly constrained        :  0   D
************************************************************************
PROJECT INFORMATION:
pronr.  #jobs rel.date duedate tardcost  MPM-Time
    1     10      0       14        8       14
************************************************************************
PRECEDENCE RELATIONS:
jobnr.    #modes  #successors   successors
   0        1          3           1   2   3
   1        3          2           8   9
   2        3          3           4   5   6
   3        3          1           7
   4        3          2           8  10
   5        3          1          10
   6        3          2           7  10
   7        3          1           8
   8        3          1          11
   9        3          1          11
  10        3          1          11
  11        1          0        
************************************************************************
REQUESTS/DURATIONS:
jobnr. mode duration  R 1  R 2  R 3  R 4  E(W 1)  E(W 2)  E(W 3)
------------------------------------------------------------------------
  0      1     0       0    0    0    0     0       0       0
  1      1     1       7    7    9    7    14       9       7
  2      1     3       6    6    8    5    36      24      15
  3      1     4       4    5    8    7    36      32      28
  4      1     7       8    7    2    4    105      14      28
  5      1     2       7    8   10    8    30      20      16
  6      1     1       9    5    5    7    14       5       7
  7      1     6       8    8    3    6    96      18      36
  8      1     2       7    7    5   10    28      10      20
  9      1     6       5    4    9    2    54      54      12
 10      1     4       1    2    6    6    16      24      24
 11      1     0       0    0    0    0     0       0       0
************************************************************************
RESOURCEAVAILABILITIES:
  R 1  R 2  R 3
   39   59   55
************************************************************************
RESOURCE LIMITS:
jobnr.  l(R 1)  u(R 1)  l(R 2)  u(R 2)  l(R 3)  u(R 3)
------------------------------------------------------------------------
  0        0       0       0       0       0       0
  1        8      14       5       9       4       7
  2        6      12       4       8       3       5
  3        5       9       4       8       4       7
  4        8      15       1       2       2       4
  5        8      15       5      10       4       8
  6        8      14       3       5       4       7
  7        8      16       2       3       3       6
  8        8      14       3       5       5      10
  9        5       9       5       9       1       2
 10        2       4       3       6       3       6
 11        0       0       0       0       0       0
************************************************************************
SCENARIOS:
------------------------------------------------------------------------
RESOURCE k = 1
s = 1: (0, 13, 32, 43, 123, 29, 18, 94, 20, 52, 15, 0)
s = 2: (0, 20, 26, 42, 135, 17, 15, 153, 19, 50, 20, 0)
s = 3: (0, 16, 28, 30, 83, 26, 12, 74, 40, 51, 17, 0)
s = 4: (0, 18, 65, 35, 85, 21, 20, 127, 37, 36, 11, 0)
s = 5: (0, 20, 21, 34, 121, 35, 16, 117, 40, 71, 28, 0)
s = 6: (0, 10, 28, 28, 118, 27, 9, 79, 25, 36, 23, 0)
s = 7: (0, 26, 40, 28, 108, 32, 9, 82, 27, 61, 21, 0)
s = 8: (0, 14, 42, 38, 72, 38, 10, 54, 23, 40, 13, 0)
s = 9: (0, 15, 26, 30, 65, 36, 10, 78, 27, 47, 12, 0)
s = 10: (0, 14, 49, 47, 161, 24, 10, 62, 24, 45, 12, 0)
s = 11: (0, 10, 49, 30, 118, 23, 13, 76, 37, 44, 22, 0)
s = 12: (0, 15, 24, 42, 127, 29, 17, 83, 27, 47, 24, 0)
s = 13: (0, 9, 23, 47, 76, 21, 12, 55, 17, 43, 14, 0)
s = 14: (0, 14, 24, 49, 139, 41, 11, 145, 40, 49, 20, 0)
s = 15: (0, 9, 37, 44, 101, 20, 16, 109, 23, 94, 17, 0)
s = 16: (0, 15, 46, 31, 99, 40, 10, 130, 28, 50, 10, 0)
s = 17: (0, 10, 32, 46, 91, 29, 24, 60, 28, 58, 21, 0)
s = 18: (0, 13, 38, 46, 128, 25, 18, 112, 22, 65, 15, 0)
s = 19: (0, 20, 26, 31, 111, 21, 12, 153, 30, 36, 17, 0)
s = 20: (0, 9, 22, 48, 119, 45, 16, 168, 41, 63, 16, 0)
s = 21: (0, 11, 51, 42, 82, 54, 21, 76, 23, 45, 16, 0)
s = 22: (0, 12, 20, 39, 85, 26, 15, 102, 22, 53, 13, 0)
s = 23: (0, 13, 34, 31, 76, 22, 9, 103, 40, 54, 18, 0)
s = 24: (0, 15, 31, 31, 78, 25, 12, 76, 39, 40, 12, 0)
s = 25: (0, 21, 29, 27, 74, 42, 10, 75, 31, 74, 18, 0)
s = 26: (0, 16, 35, 48, 78, 24, 22, 86, 35, 51, 13, 0)
s = 27: (0, 19, 38, 48, 114, 26, 17, 102, 40, 63, 11, 0)
s = 28: (0, 12, 45, 54, 117, 40, 13, 128, 23, 77, 17, 0)
s = 29: (0, 19, 59, 43, 85, 36, 21, 94, 40, 32, 10, 0)
s = 30: (0, 16, 23, 24, 68, 43, 10, 87, 33, 59, 14, 0)
s = 31: (0, 10, 36, 25, 129, 24, 18, 115, 27, 55, 21, 0)
s = 32: (0, 19, 20, 41, 187, 21, 19, 70, 19, 41, 13, 0)
s = 33: (0, 21, 28, 31, 99, 41, 11, 57, 21, 55, 9, 0)
s = 34: (0, 15, 48, 34, 157, 22, 10, 67, 39, 56, 11, 0)
s = 35: (0, 10, 50, 23, 123, 30, 15, 65, 34, 66, 16, 0)
s = 36: (0, 10, 38, 30, 77, 44, 9, 70, 27, 61, 11, 0)
s = 37: (0, 15, 50, 27, 150, 23, 14, 127, 20, 49, 9, 0)
s = 38: (0, 21, 34, 38, 156, 28, 9, 60, 32, 51, 23, 0)
s = 39: (0, 21, 38, 34, 77, 36, 13, 112, 36, 56, 19, 0)
s = 40: (0, 17, 26, 54, 180, 31, 15, 78, 17, 51, 15, 0)
s = 41: (0, 17, 26, 42, 100, 31, 9, 94, 39, 37, 18, 0)
s = 42: (0, 10, 42, 37, 97, 29, 12, 60, 52, 41, 22, 0)
s = 43: (0, 11, 20, 28, 105, 37, 10, 82, 24, 51, 18, 0)
s = 44: (0, 16, 43, 44, 178, 30, 15, 61, 26, 56, 12, 0)
s = 45: (0, 15, 21, 48, 118, 26, 23, 119, 22, 87, 13, 0)
s = 46: (0, 9, 59, 35, 103, 37, 11, 82, 25, 65, 11, 0)
s = 47: (0, 12, 42, 35, 62, 20, 14, 87, 35, 30, 19, 0)
s = 48: (0, 19, 45, 24, 65, 25, 14, 102, 20, 50, 22, 0)
s = 49: (0, 11, 56, 46, 108, 32, 9, 131, 25, 78, 10, 0)
s = 50: (0, 13, 43, 22, 93, 40, 18, 68, 28, 77, 23, 0)
s = 51: (0, 10, 42, 34, 96, 21, 13, 100, 30, 54, 14, 0)
s = 52: (0, 8, 31, 43, 156, 29, 21, 65, 29, 57, 19, 0)
s = 53: (0, 12, 38, 34, 58, 17, 12, 123, 21, 53, 23, 0)
s = 54: (0, 10, 32, 40, 87, 22, 18, 89, 34, 79, 15, 0)
s = 55: (0, 16, 40, 24, 142, 40, 14, 147, 29, 64, 13, 0)
s = 56: (0, 14, 53, 29, 100, 32, 15, 71, 25, 78, 11, 0)
s = 57: (0, 13, 49, 34, 76, 23, 13, 121, 21, 58, 9, 0)
s = 58: (0, 14, 38, 49, 131, 32, 8, 83, 31, 47, 20, 0)
s = 59: (0, 13, 36, 25, 121, 29, 15, 61, 27, 42, 28, 0)
s = 60: (0, 10, 22, 37, 92, 21, 12, 55, 36, 38, 15, 0)
s = 61: (0, 9, 37, 49, 110, 24, 17, 64, 51, 72, 23, 0)
s = 62: (0, 12, 33, 31, 94, 33, 11, 112, 25, 63, 9, 0)
s = 63: (0, 11, 27, 36, 109, 25, 14, 146, 16, 69, 20, 0)
s = 64: (0, 14, 24, 40, 114, 30, 10, 69, 34, 59, 18, 0)
s = 65: (0, 13, 59, 44, 117, 21, 15, 69, 27, 40, 11, 0)
s = 66: (0, 17, 40, 46, 86, 43, 11, 128, 34, 34, 15, 0)
s = 67: (0, 10, 42, 30, 103, 27, 16, 123, 26, 73, 14, 0)
s = 68: (0, 11, 30, 43, 117, 26, 21, 56, 22, 56, 15, 0)
s = 69: (0, 10, 34, 40, 116, 26, 12, 148, 32, 42, 18, 0)
s = 70: (0, 22, 32, 34, 100, 19, 10, 119, 32, 58, 25, 0)
s = 71: (0, 15, 27, 34, 107, 21, 12, 138, 22, 48, 16, 0)
s = 72: (0, 9, 42, 38, 94, 33, 16, 97, 20, 49, 21, 0)
s = 73: (0, 10, 57, 44, 157, 35, 11, 105, 47, 44, 11, 0)
s = 74: (0, 11, 29, 23, 144, 32, 8, 115, 40, 64, 13, 0)
s = 75: (0, 21, 28, 31, 79, 41, 12, 89, 29, 58, 20, 0)
s = 76: (0, 8, 32, 32, 96, 40, 10, 55, 16, 39, 16, 0)
s = 77: (0, 14, 65, 35, 79, 21, 8, 116, 35, 64, 15, 0)
s = 78: (0, 9, 53, 39, 160, 34, 17, 79, 31, 59, 16, 0)
s = 79: (0, 10, 50, 32, 84, 20, 14, 119, 17, 70, 23, 0)
s = 80: (0, 11, 67, 35, 112, 28, 16, 118, 29, 39, 25, 0)
s = 81: (0, 15, 32, 63, 66, 30, 17, 116, 21, 47, 23, 0)
s = 82: (0, 12, 24, 31, 115, 42, 11, 124, 29, 38, 22, 0)
s = 83: (0, 16, 33, 54, 123, 45, 12, 87, 19, 57, 24, 0)
s = 84: (0, 9, 46, 38, 123, 44, 15, 76, 34, 54, 13, 0)
s = 85: (0, 11, 21, 59, 109, 35, 20, 104, 20, 65, 22, 0)
s = 86: (0, 12, 60, 40, 104, 30, 18, 86, 51, 50, 13, 0)
s = 87: (0, 12, 60, 33, 100, 27, 21, 115, 25, 38, 11, 0)
s = 88: (0, 11, 34, 29, 70, 40, 15, 136, 35, 44, 29, 0)
s = 89: (0, 19, 28, 40, 99, 22, 8, 136, 20, 55, 19, 0)
s = 90: (0, 13, 26, 25, 111, 44, 11, 86, 39, 71, 13, 0)
s = 91: (0, 14, 32, 39, 132, 18, 10, 108, 19, 65, 12, 0)
s = 92: (0, 11, 46, 29, 137, 35, 12, 91, 39, 45, 13, 0)
s = 93: (0, 20, 51, 33, 128, 22, 20, 98, 38, 66, 15, 0)
s = 94: (0, 12, 42, 31, 76, 33, 9, 158, 39, 72, 23, 0)
s = 95: (0, 12, 50, 20, 107, 28, 14, 127, 27, 32, 15, 0)
s = 96: (0, 13, 50, 25, 114, 50, 16, 77, 21, 75, 18, 0)
s = 97: (0, 12, 41, 34, 94, 30, 15, 147, 30, 36, 12, 0)
s = 98: (0, 15, 29, 37, 127, 31, 13, 143, 24, 49, 10, 0)
s = 99: (0, 27, 45, 35, 121, 23, 15, 92, 40, 51, 22, 0)
s = 100: (0, 12, 31, 31, 99, 44, 17, 95, 23, 45, 13, 0)
s = 101: (0, 17, 32, 26, 141, 26, 11, 123, 18, 82, 19, 0)
s = 102: (0, 14, 46, 34, 93, 32, 15, 119, 36, 61, 25, 0)
s = 103: (0, 18, 44, 46, 111, 17, 11, 68, 33, 82, 23, 0)
s = 104: (0, 20, 43, 41, 69, 22, 10, 108, 24, 60, 29, 0)
s = 105: (0, 11, 28, 23, 102, 29, 16, 148, 29, 82, 17, 0)
s = 106: (0, 24, 37, 29, 108, 29, 10, 101, 29, 87, 13, 0)
s = 107: (0, 11, 37, 21, 60, 32, 12, 58, 20, 70, 15, 0)
s = 108: (0, 15, 28, 47, 64, 29, 13, 114, 43, 51, 18, 0)
s = 109: (0, 13, 39, 51, 97, 33, 18, 177, 31, 70, 17, 0)
s = 110: (0, 19, 22, 24, 112, 30, 19, 89, 43, 50, 14, 0)
s = 111: (0, 16, 30, 34, 92, 33, 16, 102, 22, 43, 12, 0)
s = 112: (0, 13, 48, 42, 142, 52, 11, 77, 24, 52, 17, 0)
s = 113: (0, 11, 42, 62, 103, 40, 14, 74, 27, 63, 16, 0)
s = 114: (0, 21, 22, 41, 98, 40, 15, 91, 27, 44, 11, 0)
s = 115: (0, 19, 25, 37, 70, 21, 10, 167, 36, 34, 11, 0)
s = 116: (0, 12, 31, 58, 67, 39, 13, 104, 39, 52, 15, 0)
s = 117: (0, 15, 50, 47, 134, 30, 10, 124, 21, 60, 14, 0)
s = 118: (0, 17, 35, 42, 105, 26, 13, 89, 26, 45, 16, 0)
s = 119: (0, 28, 36, 42, 64, 45, 14, 98, 22, 75, 12, 0)
s = 120: (0, 11, 38, 41, 101, 42, 15, 89, 20, 47, 19, 0)
s = 121: (0, 15, 26, 39, 65, 21, 9, 82, 20, 41, 11, 0)
s = 122: (0, 14, 43, 28, 72, 31, 13, 61, 24, 29, 22, 0)
s = 123: (0, 15, 43, 58, 150, 40, 15, 123, 26, 40, 18, 0)
s = 124: (0, 14, 50, 29, 74, 23, 10, 133, 29, 50, 10, 0)
s = 125: (0, 21, 47, 41, 73, 51, 21, 64, 36, 59, 18, 0)
s = 126: (0, 11, 40, 29, 130, 25, 12, 92, 27, 93, 14, 0)
s = 127: (0, 19, 46, 35, 96, 26, 13, 64, 37, 44, 19, 0)
s = 128: (0, 15, 35, 48, 110, 38, 14, 140, 27, 66, 20, 0)
s = 129: (0, 13, 24, 49, 98, 41, 15, 77, 33, 33, 18, 0)
s = 130: (0, 19, 44, 29, 87, 58, 9, 118, 24, 68, 11, 0)
s = 131: (0, 11, 29, 29, 160, 32, 9, 83, 31, 74, 20, 0)
s = 132: (0, 15, 39, 30, 101, 33, 15, 121, 16, 71, 11, 0)
s = 133: (0, 12, 38, 28, 129, 26, 13, 117, 33, 38, 16, 0)
s = 134: (0, 13, 39, 39, 78, 24, 10, 93, 26, 42, 12, 0)
s = 135: (0, 15, 26, 20, 94, 19, 11, 125, 23, 108, 12, 0)
s = 136: (0, 12, 36, 50, 120, 29, 17, 97, 31, 88, 19, 0)
s = 137: (0, 18, 49, 42, 101, 28, 9, 161, 22, 55, 27, 0)
s = 138: (0, 12, 35, 40, 151, 31, 13, 114, 21, 47, 11, 0)
s = 139: (0, 14, 47, 23, 82, 24, 22, 76, 45, 52, 21, 0)
s = 140: (0, 16, 43, 23, 75, 51, 13, 98, 44, 65, 19, 0)
s = 141: (0, 14, 31, 45, 145, 28, 16, 76, 29, 41, 23, 0)
s = 142: (0, 16, 46, 36, 129, 19, 10, 115, 39, 38, 18, 0)
s = 143: (0, 11, 26, 33, 184, 28, 24, 102, 43, 76, 15, 0)
s = 144: (0, 11, 46, 44, 116, 34, 15, 60, 41, 56, 20, 0)
s = 145: (0, 24, 29, 26, 113, 27, 14, 138, 23, 57, 15, 0)
s = 146: (0, 10, 49, 61, 93, 31, 13, 146, 30, 62, 13, 0)
s = 147: (0, 11, 37, 21, 167, 37, 18, 85, 25, 80, 12, 0)
s = 148: (0, 11, 45, 29, 107, 33, 16, 77, 34, 82, 15, 0)
s = 149: (0, 12, 57, 42, 78, 37, 24, 95, 24, 75, 14, 0)
s = 150: (0, 17, 52, 26, 101, 27, 12, 80, 17, 48, 17, 0)
s = 151: (0, 16, 37, 61, 113, 47, 12, 132, 38, 54, 18, 0)
s = 152: (0, 12, 24, 29, 114, 39, 14, 93, 24, 50, 10, 0)
s = 153: (0, 22, 53, 21, 86, 43, 16, 64, 39, 45, 16, 0)
s = 154: (0, 16, 57, 46, 119, 48, 15, 139, 30, 53, 17, 0)
s = 155: (0, 10, 34, 40, 82, 22, 19, 99, 23, 57, 22, 0)
s = 156: (0, 17, 62, 41, 98, 42, 21, 140, 32, 49, 20, 0)
s = 157: (0, 21, 39, 51, 130, 29, 17, 156, 22, 99, 17, 0)
s = 158: (0, 11, 21, 36, 119, 32, 12, 128, 33, 46, 31, 0)
s = 159: (0, 13, 40, 29, 117, 23, 17, 112, 38, 65, 11, 0)
s = 160: (0, 11, 55, 46, 98, 49, 11, 106, 27, 42, 12, 0)
s = 161: (0, 10, 23, 38, 104, 34, 16, 99, 16, 64, 18, 0)
s = 162: (0, 11, 31, 43, 87, 25, 19, 69, 20, 43, 23, 0)
s = 163: (0, 15, 32, 30, 117, 40, 12, 103, 24, 45, 13, 0)
s = 164: (0, 14, 26, 60, 84, 27, 9, 91, 28, 37, 18, 0)
s = 165: (0, 10, 35, 33, 116, 30, 15, 86, 29, 56, 11, 0)
s = 166: (0, 12, 30, 56, 99, 38, 10, 73, 52, 54, 21, 0)
s = 167: (0, 9, 26, 31, 114, 30, 14, 101, 16, 44, 18, 0)
s = 168: (0, 22, 46, 21, 83, 20, 11, 85, 35, 60, 18, 0)
s = 169: (0, 13, 36, 64, 125, 20, 11, 68, 18, 54, 21, 0)
s = 170: (0, 20, 39, 25, 152, 48, 10, 89, 40, 93, 27, 0)
s = 171: (0, 20, 42, 34, 84, 22, 17, 84, 18, 54, 9, 0)
s = 172: (0, 16, 41, 37, 163, 24, 13, 62, 29, 72, 23, 0)
s = 173: (0, 13, 30, 39, 96, 18, 16, 123, 38, 60, 14, 0)
s = 174: (0, 17, 23, 39, 106, 30, 13, 125, 25, 38, 21, 0)
s = 175: (0, 9, 52, 48, 136, 34, 10, 106, 28, 55, 17, 0)
s = 176: (0, 18, 41, 43, 88, 30, 10, 88, 22, 54, 25, 0)
s = 177: (0, 10, 49, 23, 112, 45, 14, 92, 31, 47, 24, 0)
s = 178: (0, 24, 61, 59, 135, 29, 14, 56, 22, 59, 21, 0)
s = 179: (0, 20, 35, 37, 73, 27, 14, 91, 19, 45, 11, 0)
s = 180: (0, 12, 31, 43, 108, 39, 15, 73, 27, 56, 26, 0)
s = 181: (0, 15, 43, 41, 96, 18, 13, 132, 21, 35, 14, 0)
s = 182: (0, 10, 44, 34, 82, 21, 11, 82, 22, 39, 19, 0)
s = 183: (0, 11, 47, 24, 144, 22, 15, 122, 30, 41, 12, 0)
s = 184: (0, 14, 29, 30, 76, 34, 14, 87, 42, 77, 26, 0)
s = 185: (0, 16, 26, 22, 63, 22, 15, 74, 24, 48, 11, 0)
s = 186: (0, 8, 43, 28, 126, 42, 9, 82, 26, 48, 23, 0)
s = 187: (0, 8, 39, 31, 146, 46, 15, 93, 41, 77, 15, 0)
s = 188: (0, 15, 30, 51, 82, 34, 17, 78, 24, 44, 13, 0)
s = 189: (0, 15, 25, 46, 78, 34, 12, 64, 31, 49, 20, 0)
s = 190: (0, 19, 47, 22, 116, 40, 18, 144, 26, 56, 24, 0)
s = 191: (0, 12, 34, 29, 61, 19, 12, 106, 19, 60, 18, 0)
s = 192: (0, 17, 38, 34, 171, 38, 12, 79, 32, 48, 17, 0)
s = 193: (0, 14, 25, 34, 135, 17, 15, 92, 44, 46, 17, 0)
s = 194: (0, 9, 25, 39, 139, 39, 17, 135, 28, 34, 17, 0)
s = 195: (0, 13, 36, 33, 66, 22, 16, 83, 44, 78, 22, 0)
s = 196: (0, 22, 23, 30, 72, 29, 13, 92, 43, 53, 19, 0)
s = 197: (0, 14, 51, 27, 93, 44, 22, 55, 41, 74, 19, 0)
s = 198: (0, 20, 39, 29, 119, 26, 12, 112, 22, 91, 20, 0)
s = 199: (0, 12, 37, 27, 98, 41, 14, 108, 20, 46, 14, 0)
s = 200: (0, 12, 29, 40, 135, 20, 11, 73, 30, 39, 16, 0)
------------------------------------------------------------------------
RESOURCE k = 2
s = 1: (0, 8, 21, 38, 17, 20, 7, 18, 8, 52, 22, 0)
s = 2: (0, 13, 18, 37, 18, 12, 6, 29, 7, 50, 30, 0)
s = 3: (0, 10, 19, 27, 11, 18, 5, 14, 15, 51, 25, 0)
s = 4: (0, 12, 43, 31, 12, 14, 7, 24, 14, 36, 16, 0)
s = 5: (0, 13, 14, 30, 17, 24, 6, 22, 15, 71, 41, 0)
s = 6: (0, 7, 19, 25, 16, 18, 3, 15, 9, 36, 34, 0)
s = 7: (0, 17, 27, 25, 15, 22, 4, 16, 10, 61, 31, 0)
s = 8: (0, 9, 28, 34, 10, 25, 4, 11, 9, 40, 19, 0)
s = 9: (0, 10, 17, 27, 9, 24, 4, 15, 10, 47, 17, 0)
s = 10: (0, 9, 33, 42, 22, 16, 4, 12, 9, 45, 17, 0)
s = 11: (0, 7, 33, 26, 16, 16, 5, 15, 14, 44, 33, 0)
s = 12: (0, 10, 16, 37, 17, 20, 6, 16, 10, 47, 36, 0)
s = 13: (0, 6, 16, 42, 11, 14, 5, 11, 6, 43, 21, 0)
s = 14: (0, 9, 16, 44, 19, 27, 4, 28, 15, 49, 29, 0)
s = 15: (0, 6, 25, 40, 14, 14, 6, 21, 9, 94, 25, 0)
s = 16: (0, 10, 31, 27, 14, 27, 4, 25, 10, 50, 15, 0)
s = 17: (0, 7, 22, 41, 13, 19, 9, 12, 10, 58, 31, 0)
s = 18: (0, 9, 26, 41, 17, 17, 7, 21, 8, 65, 22, 0)
s = 19: (0, 13, 17, 28, 15, 14, 4, 29, 11, 36, 25, 0)
s = 20: (0, 6, 15, 43, 16, 30, 6, 32, 15, 63, 24, 0)
s = 21: (0, 7, 34, 38, 11, 36, 8, 15, 9, 45, 23, 0)
s = 22: (0, 8, 14, 34, 12, 18, 6, 19, 8, 53, 20, 0)
s = 23: (0, 8, 23, 27, 11, 15, 3, 20, 15, 54, 26, 0)
s = 24: (0, 10, 21, 28, 11, 17, 4, 15, 14, 40, 17, 0)
s = 25: (0, 14, 19, 24, 10, 28, 4, 15, 12, 74, 26, 0)
s = 26: (0, 10, 24, 42, 11, 16, 8, 16, 13, 51, 19, 0)
s = 27: (0, 12, 25, 43, 16, 18, 7, 20, 14, 63, 16, 0)
s = 28: (0, 8, 30, 48, 16, 27, 5, 24, 9, 77, 25, 0)
s = 29: (0, 12, 39, 38, 12, 24, 8, 18, 14, 32, 15, 0)
s = 30: (0, 10, 16, 22, 10, 29, 4, 17, 12, 59, 21, 0)
s = 31: (0, 7, 24, 23, 18, 16, 7, 22, 10, 55, 31, 0)
s = 32: (0, 13, 13, 37, 25, 14, 7, 14, 7, 41, 20, 0)
s = 33: (0, 14, 19, 28, 14, 27, 4, 11, 8, 55, 14, 0)
s = 34: (0, 10, 32, 31, 21, 15, 4, 13, 14, 56, 16, 0)
s = 35: (0, 7, 34, 20, 17, 20, 6, 13, 12, 66, 23, 0)
s = 36: (0, 6, 25, 27, 11, 30, 4, 14, 10, 61, 16, 0)
s = 37: (0, 10, 33, 24, 20, 16, 5, 24, 7, 49, 14, 0)
s = 38: (0, 14, 23, 34, 21, 19, 4, 12, 12, 51, 35, 0)
s = 39: (0, 14, 25, 30, 11, 24, 5, 21, 13, 56, 28, 0)
s = 40: (0, 11, 17, 48, 24, 21, 6, 15, 6, 51, 23, 0)
s = 41: (0, 11, 17, 37, 14, 21, 4, 18, 14, 37, 27, 0)
s = 42: (0, 6, 28, 33, 13, 20, 5, 12, 19, 41, 33, 0)
s = 43: (0, 7, 14, 25, 14, 25, 4, 16, 9, 51, 26, 0)
s = 44: (0, 10, 29, 39, 24, 20, 6, 12, 10, 56, 18, 0)
s = 45: (0, 10, 14, 43, 16, 17, 8, 23, 8, 87, 19, 0)
s = 46: (0, 6, 39, 31, 14, 25, 4, 16, 9, 65, 16, 0)
s = 47: (0, 8, 28, 31, 9, 14, 5, 17, 13, 30, 28, 0)
s = 48: (0, 12, 30, 21, 9, 17, 5, 20, 8, 50, 33, 0)
s = 49: (0, 7, 38, 41, 15, 21, 4, 25, 9, 78, 15, 0)
s = 50: (0, 9, 29, 20, 13, 27, 7, 13, 10, 77, 34, 0)
s = 51: (0, 7, 28, 30, 13, 14, 5, 19, 11, 54, 21, 0)
s = 52: (0, 5, 21, 38, 21, 19, 8, 13, 11, 57, 28, 0)
s = 53: (0, 8, 26, 31, 8, 12, 5, 24, 8, 53, 34, 0)
s = 54: (0, 7, 21, 35, 12, 15, 7, 17, 12, 79, 22, 0)
s = 55: (0, 11, 27, 21, 19, 27, 5, 28, 11, 64, 19, 0)
s = 56: (0, 9, 36, 26, 14, 22, 6, 14, 9, 78, 17, 0)
s = 57: (0, 9, 33, 30, 11, 16, 5, 23, 8, 58, 13, 0)
s = 58: (0, 9, 26, 44, 18, 22, 3, 16, 11, 47, 30, 0)
s = 59: (0, 8, 24, 22, 17, 20, 6, 12, 10, 42, 42, 0)
s = 60: (0, 6, 15, 33, 13, 14, 5, 11, 13, 38, 23, 0)
s = 61: (0, 6, 25, 44, 15, 16, 6, 12, 18, 72, 34, 0)
s = 62: (0, 8, 22, 28, 13, 22, 4, 21, 9, 63, 14, 0)
s = 63: (0, 8, 18, 32, 15, 17, 5, 28, 6, 69, 29, 0)
s = 64: (0, 9, 16, 35, 16, 20, 4, 13, 12, 59, 27, 0)
s = 65: (0, 9, 39, 39, 16, 14, 6, 13, 10, 40, 16, 0)
s = 66: (0, 11, 27, 41, 12, 29, 4, 24, 12, 34, 22, 0)
s = 67: (0, 7, 28, 26, 14, 18, 6, 23, 9, 73, 21, 0)
s = 68: (0, 7, 20, 38, 16, 17, 8, 11, 8, 56, 22, 0)
s = 69: (0, 6, 23, 35, 16, 17, 5, 28, 12, 42, 27, 0)
s = 70: (0, 14, 21, 30, 14, 13, 4, 23, 12, 58, 37, 0)
s = 71: (0, 10, 18, 30, 15, 14, 5, 26, 8, 48, 24, 0)
s = 72: (0, 6, 28, 33, 13, 22, 6, 19, 7, 49, 31, 0)
s = 73: (0, 7, 38, 39, 21, 24, 4, 20, 17, 44, 17, 0)
s = 74: (0, 7, 19, 21, 20, 21, 3, 22, 15, 64, 19, 0)
s = 75: (0, 13, 19, 28, 11, 27, 5, 17, 11, 58, 30, 0)
s = 76: (0, 6, 22, 29, 13, 27, 4, 11, 6, 39, 24, 0)
s = 77: (0, 9, 44, 31, 11, 14, 3, 22, 13, 64, 23, 0)
s = 78: (0, 6, 35, 35, 22, 23, 6, 15, 12, 59, 24, 0)
s = 79: (0, 6, 34, 29, 12, 13, 5, 23, 6, 70, 34, 0)
s = 80: (0, 7, 45, 31, 15, 19, 6, 23, 11, 39, 38, 0)
s = 81: (0, 10, 22, 56, 9, 20, 6, 22, 8, 47, 34, 0)
s = 82: (0, 8, 16, 28, 16, 28, 4, 24, 11, 38, 33, 0)
s = 83: (0, 11, 22, 48, 17, 30, 4, 17, 7, 57, 36, 0)
s = 84: (0, 6, 31, 33, 17, 29, 6, 15, 12, 54, 20, 0)
s = 85: (0, 8, 14, 53, 15, 24, 8, 20, 7, 65, 33, 0)
s = 86: (0, 8, 40, 36, 14, 20, 7, 17, 18, 50, 20, 0)
s = 87: (0, 8, 40, 30, 14, 18, 8, 22, 9, 38, 17, 0)
s = 88: (0, 7, 23, 26, 10, 27, 6, 26, 13, 44, 43, 0)
s = 89: (0, 12, 19, 36, 14, 15, 3, 26, 8, 55, 28, 0)
s = 90: (0, 8, 18, 23, 15, 30, 4, 17, 14, 71, 19, 0)
s = 91: (0, 9, 22, 35, 18, 12, 4, 21, 7, 65, 18, 0)
s = 92: (0, 7, 31, 26, 19, 23, 5, 17, 14, 45, 19, 0)
s = 93: (0, 13, 34, 29, 18, 15, 7, 19, 14, 66, 23, 0)
s = 94: (0, 8, 28, 28, 11, 22, 4, 30, 14, 72, 34, 0)
s = 95: (0, 8, 33, 18, 15, 19, 5, 24, 10, 32, 22, 0)
s = 96: (0, 9, 34, 23, 16, 34, 6, 15, 8, 75, 27, 0)
s = 97: (0, 8, 27, 31, 13, 20, 6, 28, 11, 36, 18, 0)
s = 98: (0, 10, 20, 33, 17, 21, 5, 27, 9, 49, 14, 0)
s = 99: (0, 17, 30, 32, 17, 16, 6, 18, 15, 51, 33, 0)
s = 100: (0, 8, 21, 28, 14, 30, 6, 18, 8, 45, 19, 0)
s = 101: (0, 11, 22, 23, 19, 17, 4, 23, 7, 82, 28, 0)
s = 102: (0, 9, 31, 30, 13, 22, 6, 23, 13, 61, 37, 0)
s = 103: (0, 12, 29, 41, 15, 12, 4, 13, 12, 82, 35, 0)
s = 104: (0, 13, 29, 37, 10, 15, 4, 21, 9, 60, 43, 0)
s = 105: (0, 7, 19, 20, 14, 19, 6, 28, 11, 82, 25, 0)
s = 106: (0, 15, 25, 26, 15, 19, 4, 19, 11, 87, 19, 0)
s = 107: (0, 8, 25, 19, 8, 21, 5, 11, 8, 70, 23, 0)
s = 108: (0, 10, 19, 42, 9, 19, 5, 22, 16, 51, 26, 0)
s = 109: (0, 9, 26, 46, 13, 22, 7, 34, 11, 70, 26, 0)
s = 110: (0, 13, 15, 21, 15, 20, 7, 17, 16, 50, 20, 0)
s = 111: (0, 11, 20, 30, 13, 22, 6, 20, 8, 43, 18, 0)
s = 112: (0, 8, 32, 37, 19, 35, 4, 15, 9, 52, 25, 0)
s = 113: (0, 7, 28, 55, 14, 27, 5, 14, 10, 63, 23, 0)
s = 114: (0, 14, 15, 37, 14, 27, 6, 17, 10, 44, 16, 0)
s = 115: (0, 13, 17, 33, 10, 14, 4, 32, 13, 34, 16, 0)
s = 116: (0, 8, 21, 51, 9, 26, 5, 20, 14, 52, 22, 0)
s = 117: (0, 10, 33, 42, 18, 20, 4, 24, 8, 60, 20, 0)
s = 118: (0, 11, 23, 37, 14, 18, 5, 17, 10, 45, 24, 0)
s = 119: (0, 18, 24, 37, 9, 30, 5, 19, 8, 75, 18, 0)
s = 120: (0, 7, 26, 36, 14, 28, 6, 17, 8, 47, 29, 0)
s = 121: (0, 10, 17, 35, 9, 14, 4, 16, 8, 41, 16, 0)
s = 122: (0, 9, 29, 25, 10, 21, 5, 12, 9, 29, 32, 0)
s = 123: (0, 10, 29, 51, 20, 27, 6, 23, 10, 40, 26, 0)
s = 124: (0, 9, 33, 26, 10, 16, 4, 25, 11, 50, 14, 0)
s = 125: (0, 14, 31, 37, 10, 34, 8, 12, 13, 59, 26, 0)
s = 126: (0, 7, 27, 26, 18, 17, 5, 18, 10, 93, 21, 0)
s = 127: (0, 13, 31, 32, 13, 17, 5, 12, 14, 44, 29, 0)
s = 128: (0, 10, 24, 43, 15, 26, 5, 27, 10, 66, 30, 0)
s = 129: (0, 8, 16, 44, 14, 27, 6, 15, 12, 33, 27, 0)
s = 130: (0, 13, 30, 25, 12, 39, 4, 23, 9, 68, 16, 0)
s = 131: (0, 7, 20, 26, 22, 22, 3, 16, 11, 74, 29, 0)
s = 132: (0, 10, 26, 27, 14, 22, 6, 23, 6, 71, 16, 0)
s = 133: (0, 8, 25, 25, 18, 17, 5, 22, 12, 38, 24, 0)
s = 134: (0, 9, 26, 35, 11, 16, 4, 18, 9, 42, 18, 0)
s = 135: (0, 10, 18, 18, 13, 13, 4, 24, 8, 108, 18, 0)
s = 136: (0, 8, 24, 45, 16, 20, 6, 19, 12, 88, 28, 0)
s = 137: (0, 12, 33, 37, 14, 19, 4, 31, 8, 55, 41, 0)
s = 138: (0, 8, 24, 35, 21, 21, 5, 22, 8, 47, 16, 0)
s = 139: (0, 9, 31, 21, 11, 16, 8, 15, 16, 52, 31, 0)
s = 140: (0, 11, 29, 21, 10, 34, 5, 19, 16, 65, 28, 0)
s = 141: (0, 9, 21, 40, 20, 19, 6, 15, 11, 41, 34, 0)
s = 142: (0, 10, 31, 32, 18, 13, 4, 22, 14, 38, 27, 0)
s = 143: (0, 7, 17, 29, 25, 19, 9, 20, 16, 76, 23, 0)
s = 144: (0, 7, 31, 39, 16, 23, 6, 12, 15, 56, 30, 0)
s = 145: (0, 16, 19, 23, 16, 18, 5, 26, 8, 57, 22, 0)
s = 146: (0, 7, 33, 54, 13, 21, 5, 28, 11, 62, 20, 0)
s = 147: (0, 8, 25, 19, 23, 25, 7, 16, 9, 80, 17, 0)
s = 148: (0, 7, 30, 26, 15, 22, 6, 15, 12, 82, 22, 0)
s = 149: (0, 8, 38, 37, 11, 25, 9, 18, 9, 75, 21, 0)
s = 150: (0, 11, 35, 23, 14, 18, 5, 15, 6, 48, 25, 0)
s = 151: (0, 10, 25, 54, 15, 32, 5, 25, 14, 54, 26, 0)
s = 152: (0, 8, 16, 26, 16, 26, 5, 18, 9, 50, 14, 0)
s = 153: (0, 14, 35, 19, 12, 29, 6, 12, 14, 45, 23, 0)
s = 154: (0, 11, 38, 41, 16, 32, 6, 26, 11, 53, 25, 0)
s = 155: (0, 7, 23, 35, 11, 15, 7, 19, 8, 57, 32, 0)
s = 156: (0, 11, 41, 37, 13, 28, 8, 27, 12, 49, 30, 0)
s = 157: (0, 14, 26, 45, 18, 19, 6, 30, 8, 99, 26, 0)
s = 158: (0, 7, 14, 32, 16, 21, 4, 24, 12, 46, 46, 0)
s = 159: (0, 9, 27, 26, 16, 16, 6, 21, 14, 65, 16, 0)
s = 160: (0, 8, 37, 41, 14, 33, 4, 20, 10, 42, 18, 0)
s = 161: (0, 7, 15, 34, 14, 23, 6, 19, 6, 64, 27, 0)
s = 162: (0, 7, 21, 38, 12, 17, 7, 13, 7, 43, 34, 0)
s = 163: (0, 10, 22, 27, 16, 27, 5, 20, 9, 45, 19, 0)
s = 164: (0, 9, 18, 54, 12, 18, 4, 17, 10, 37, 27, 0)
s = 165: (0, 7, 23, 29, 16, 20, 6, 17, 11, 56, 16, 0)
s = 166: (0, 8, 20, 50, 14, 26, 4, 14, 19, 54, 31, 0)
s = 167: (0, 6, 17, 27, 16, 20, 5, 19, 6, 44, 27, 0)
s = 168: (0, 15, 31, 19, 12, 13, 4, 16, 13, 60, 26, 0)
s = 169: (0, 8, 24, 57, 17, 14, 4, 13, 7, 54, 32, 0)
s = 170: (0, 13, 26, 23, 21, 32, 4, 17, 15, 93, 41, 0)
s = 171: (0, 13, 28, 31, 12, 15, 6, 16, 7, 54, 14, 0)
s = 172: (0, 10, 28, 33, 22, 16, 5, 12, 11, 72, 35, 0)
s = 173: (0, 9, 20, 35, 13, 12, 6, 24, 14, 60, 21, 0)
s = 174: (0, 11, 15, 35, 15, 20, 5, 24, 9, 38, 31, 0)
s = 175: (0, 6, 35, 43, 19, 23, 4, 20, 10, 55, 26, 0)
s = 176: (0, 12, 27, 38, 12, 20, 4, 17, 8, 54, 38, 0)
s = 177: (0, 7, 33, 21, 15, 30, 5, 18, 11, 47, 36, 0)
s = 178: (0, 16, 41, 53, 18, 19, 5, 11, 8, 59, 31, 0)
s = 179: (0, 13, 23, 33, 10, 18, 5, 17, 7, 45, 16, 0)
s = 180: (0, 8, 21, 38, 15, 26, 6, 14, 10, 56, 39, 0)
s = 181: (0, 10, 29, 37, 13, 12, 5, 25, 8, 35, 21, 0)
s = 182: (0, 7, 29, 30, 11, 14, 4, 16, 8, 39, 29, 0)
s = 183: (0, 7, 31, 21, 20, 15, 6, 23, 11, 41, 18, 0)
s = 184: (0, 9, 19, 27, 11, 23, 5, 17, 15, 77, 38, 0)
s = 185: (0, 10, 17, 20, 9, 15, 6, 14, 9, 48, 16, 0)
s = 186: (0, 5, 29, 25, 17, 28, 4, 16, 9, 48, 34, 0)
s = 187: (0, 6, 26, 27, 20, 31, 6, 18, 15, 77, 22, 0)
s = 188: (0, 10, 20, 46, 11, 23, 7, 15, 9, 44, 19, 0)
s = 189: (0, 10, 17, 41, 11, 23, 5, 12, 11, 49, 30, 0)
s = 190: (0, 12, 31, 20, 16, 27, 7, 27, 10, 56, 35, 0)
s = 191: (0, 8, 23, 26, 9, 13, 5, 20, 7, 60, 26, 0)
s = 192: (0, 11, 25, 30, 23, 25, 5, 15, 12, 48, 25, 0)
s = 193: (0, 9, 17, 30, 18, 12, 6, 18, 16, 46, 26, 0)
s = 194: (0, 6, 17, 35, 19, 26, 6, 26, 10, 34, 26, 0)
s = 195: (0, 8, 24, 30, 9, 15, 6, 16, 16, 78, 33, 0)
s = 196: (0, 14, 15, 27, 10, 19, 5, 18, 16, 53, 28, 0)
s = 197: (0, 9, 34, 24, 13, 29, 8, 11, 15, 74, 28, 0)
s = 198: (0, 13, 26, 26, 16, 17, 5, 21, 8, 91, 30, 0)
s = 199: (0, 8, 25, 24, 13, 28, 5, 21, 7, 46, 20, 0)
s = 200: (0, 8, 20, 35, 18, 14, 4, 14, 11, 39, 23, 0)
------------------------------------------------------------------------
RESOURCE k = 3
s = 1: (0, 7, 14, 34, 33, 16, 9, 36, 15, 12, 22, 0)
s = 2: (0, 10, 11, 33, 36, 9, 8, 58, 14, 12, 30, 0)
s = 3: (0, 8, 12, 24, 22, 14, 6, 28, 29, 12, 25, 0)
s = 4: (0, 9, 27, 27, 23, 11, 10, 48, 27, 8, 16, 0)
s = 5: (0, 10, 9, 27, 33, 19, 8, 44, 29, 16, 41, 0)
s = 6: (0, 5, 12, 22, 32, 14, 5, 30, 18, 8, 34, 0)
s = 7: (0, 13, 17, 22, 29, 17, 5, 31, 20, 14, 31, 0)
s = 8: (0, 7, 18, 30, 20, 20, 5, 21, 17, 9, 19, 0)
s = 9: (0, 8, 11, 24, 18, 19, 5, 29, 19, 11, 17, 0)
s = 10: (0, 7, 21, 37, 43, 13, 5, 24, 17, 10, 17, 0)
s = 11: (0, 5, 21, 23, 32, 13, 7, 29, 27, 10, 33, 0)
s = 12: (0, 8, 10, 33, 34, 16, 9, 31, 19, 11, 36, 0)
s = 13: (0, 5, 10, 37, 21, 11, 6, 21, 12, 10, 21, 0)
s = 14: (0, 7, 10, 39, 37, 22, 6, 55, 29, 11, 29, 0)
s = 15: (0, 5, 16, 35, 27, 11, 8, 41, 17, 21, 25, 0)
s = 16: (0, 8, 19, 24, 27, 21, 5, 49, 20, 12, 15, 0)
s = 17: (0, 5, 14, 36, 25, 16, 12, 23, 20, 13, 31, 0)
s = 18: (0, 7, 16, 36, 34, 14, 9, 42, 16, 15, 22, 0)
s = 19: (0, 10, 11, 24, 30, 12, 6, 58, 21, 8, 25, 0)
s = 20: (0, 5, 9, 38, 32, 24, 8, 63, 29, 14, 24, 0)
s = 21: (0, 6, 21, 33, 22, 29, 11, 29, 17, 10, 23, 0)
s = 22: (0, 6, 9, 30, 23, 14, 8, 38, 16, 12, 20, 0)
s = 23: (0, 7, 14, 24, 21, 12, 5, 39, 29, 12, 26, 0)
s = 24: (0, 8, 13, 25, 21, 14, 6, 29, 28, 9, 17, 0)
s = 25: (0, 11, 12, 21, 20, 22, 5, 29, 23, 17, 26, 0)
s = 26: (0, 8, 15, 37, 21, 13, 11, 32, 25, 12, 19, 0)
s = 27: (0, 10, 16, 38, 31, 14, 9, 39, 28, 14, 16, 0)
s = 28: (0, 6, 19, 42, 32, 22, 7, 48, 17, 17, 25, 0)
s = 29: (0, 10, 25, 33, 23, 19, 11, 36, 28, 8, 15, 0)
s = 30: (0, 8, 10, 19, 19, 23, 5, 33, 24, 14, 21, 0)
s = 31: (0, 5, 15, 20, 35, 13, 9, 43, 19, 13, 31, 0)
s = 32: (0, 10, 8, 32, 50, 11, 10, 27, 14, 9, 20, 0)
s = 33: (0, 11, 12, 24, 27, 22, 6, 22, 15, 13, 14, 0)
s = 34: (0, 8, 20, 27, 42, 12, 5, 25, 28, 13, 16, 0)
s = 35: (0, 5, 21, 18, 33, 16, 8, 25, 24, 15, 23, 0)
s = 36: (0, 5, 16, 23, 21, 24, 5, 27, 20, 14, 16, 0)
s = 37: (0, 8, 21, 21, 40, 13, 7, 48, 14, 11, 14, 0)
s = 38: (0, 11, 15, 29, 42, 15, 5, 23, 23, 12, 35, 0)
s = 39: (0, 11, 16, 27, 21, 19, 7, 42, 26, 13, 28, 0)
s = 40: (0, 9, 11, 42, 48, 17, 8, 29, 12, 12, 23, 0)
s = 41: (0, 9, 11, 32, 27, 17, 5, 35, 28, 9, 27, 0)
s = 42: (0, 5, 18, 29, 26, 16, 6, 23, 37, 10, 33, 0)
s = 43: (0, 6, 9, 22, 28, 20, 5, 31, 17, 12, 26, 0)
s = 44: (0, 8, 18, 34, 48, 16, 8, 23, 19, 13, 18, 0)
s = 45: (0, 8, 9, 38, 32, 14, 12, 45, 16, 20, 19, 0)
s = 46: (0, 5, 25, 27, 28, 20, 6, 31, 18, 15, 16, 0)
s = 47: (0, 6, 18, 27, 17, 11, 7, 33, 25, 7, 28, 0)
s = 48: (0, 10, 19, 19, 18, 13, 7, 39, 15, 11, 33, 0)
s = 49: (0, 6, 24, 36, 29, 17, 5, 50, 18, 18, 15, 0)
s = 50: (0, 7, 18, 18, 25, 22, 9, 26, 20, 18, 34, 0)
s = 51: (0, 5, 18, 26, 26, 12, 7, 38, 22, 12, 21, 0)
s = 52: (0, 4, 13, 33, 42, 16, 11, 25, 21, 13, 28, 0)
s = 53: (0, 6, 16, 27, 16, 9, 6, 47, 15, 12, 34, 0)
s = 54: (0, 5, 13, 31, 24, 12, 9, 34, 24, 18, 22, 0)
s = 55: (0, 8, 17, 19, 38, 22, 7, 56, 21, 15, 19, 0)
s = 56: (0, 7, 22, 22, 27, 17, 8, 27, 18, 18, 17, 0)
s = 57: (0, 7, 21, 27, 21, 13, 7, 46, 15, 13, 13, 0)
s = 58: (0, 7, 16, 38, 35, 17, 4, 31, 22, 11, 30, 0)
s = 59: (0, 7, 15, 19, 33, 16, 8, 23, 19, 10, 42, 0)
s = 60: (0, 5, 10, 29, 25, 12, 6, 21, 26, 9, 23, 0)
s = 61: (0, 5, 16, 38, 30, 13, 9, 24, 36, 16, 34, 0)
s = 62: (0, 6, 14, 24, 25, 18, 6, 42, 18, 14, 14, 0)
s = 63: (0, 6, 11, 28, 29, 13, 7, 55, 12, 16, 29, 0)
s = 64: (0, 7, 10, 31, 31, 16, 5, 26, 24, 14, 27, 0)
s = 65: (0, 7, 25, 34, 32, 11, 8, 26, 20, 9, 16, 0)
s = 66: (0, 9, 17, 36, 23, 23, 6, 48, 24, 8, 22, 0)
s = 67: (0, 5, 18, 23, 28, 15, 8, 46, 18, 17, 21, 0)
s = 68: (0, 6, 13, 33, 32, 14, 11, 21, 16, 13, 22, 0)
s = 69: (0, 5, 14, 31, 31, 14, 6, 56, 23, 10, 27, 0)
s = 70: (0, 11, 14, 26, 27, 10, 5, 45, 23, 13, 37, 0)
s = 71: (0, 8, 12, 27, 29, 11, 6, 52, 16, 11, 24, 0)
s = 72: (0, 5, 18, 29, 25, 18, 8, 37, 14, 11, 31, 0)
s = 73: (0, 5, 24, 34, 42, 19, 6, 40, 33, 10, 17, 0)
s = 74: (0, 6, 12, 18, 39, 17, 4, 44, 29, 15, 19, 0)
s = 75: (0, 11, 12, 24, 21, 22, 6, 34, 21, 13, 30, 0)
s = 76: (0, 4, 14, 25, 26, 22, 5, 21, 12, 9, 24, 0)
s = 77: (0, 7, 28, 27, 21, 11, 4, 44, 25, 15, 23, 0)
s = 78: (0, 5, 22, 31, 43, 18, 9, 30, 23, 13, 24, 0)
s = 79: (0, 5, 21, 25, 23, 11, 7, 45, 12, 16, 34, 0)
s = 80: (0, 6, 28, 27, 30, 15, 8, 45, 21, 9, 38, 0)
s = 81: (0, 8, 14, 49, 18, 16, 9, 44, 15, 11, 34, 0)
s = 82: (0, 6, 10, 24, 31, 22, 6, 47, 21, 9, 33, 0)
s = 83: (0, 8, 14, 42, 33, 24, 6, 33, 14, 13, 36, 0)
s = 84: (0, 5, 20, 29, 33, 24, 8, 29, 24, 12, 20, 0)
s = 85: (0, 6, 9, 46, 29, 19, 10, 39, 14, 15, 33, 0)
s = 86: (0, 6, 25, 31, 28, 16, 9, 33, 36, 11, 20, 0)
s = 87: (0, 6, 25, 26, 27, 15, 11, 44, 18, 9, 17, 0)
s = 88: (0, 6, 14, 23, 19, 22, 8, 51, 25, 10, 43, 0)
s = 89: (0, 10, 12, 32, 27, 12, 4, 51, 15, 13, 28, 0)
s = 90: (0, 7, 11, 20, 30, 24, 6, 33, 28, 16, 19, 0)
s = 91: (0, 7, 14, 31, 36, 10, 5, 41, 14, 15, 18, 0)
s = 92: (0, 6, 19, 23, 37, 19, 6, 34, 28, 10, 19, 0)
s = 93: (0, 10, 22, 25, 35, 12, 10, 37, 27, 15, 23, 0)
s = 94: (0, 6, 18, 24, 21, 18, 5, 60, 28, 16, 34, 0)
s = 95: (0, 6, 21, 16, 29, 15, 7, 48, 19, 8, 22, 0)
s = 96: (0, 7, 21, 20, 31, 27, 8, 29, 15, 17, 27, 0)
s = 97: (0, 6, 17, 27, 25, 16, 8, 55, 22, 8, 18, 0)
s = 98: (0, 8, 13, 29, 34, 17, 7, 54, 17, 11, 14, 0)
s = 99: (0, 14, 19, 28, 33, 13, 8, 35, 29, 12, 33, 0)
s = 100: (0, 6, 13, 24, 27, 24, 9, 36, 16, 10, 19, 0)
s = 101: (0, 9, 14, 20, 38, 14, 6, 46, 13, 19, 28, 0)
s = 102: (0, 7, 20, 26, 25, 17, 8, 45, 26, 14, 37, 0)
s = 103: (0, 9, 18, 36, 30, 9, 6, 26, 24, 19, 35, 0)
s = 104: (0, 10, 18, 32, 19, 12, 5, 41, 17, 14, 43, 0)
s = 105: (0, 6, 12, 18, 28, 15, 8, 56, 21, 19, 25, 0)
s = 106: (0, 12, 16, 23, 29, 16, 5, 38, 21, 20, 19, 0)
s = 107: (0, 6, 16, 16, 16, 17, 6, 22, 15, 16, 23, 0)
s = 108: (0, 8, 12, 37, 17, 15, 7, 43, 31, 12, 26, 0)
s = 109: (0, 7, 16, 40, 26, 18, 9, 67, 22, 16, 26, 0)
s = 110: (0, 10, 10, 19, 30, 16, 10, 34, 31, 11, 20, 0)
s = 111: (0, 8, 13, 27, 25, 18, 8, 39, 16, 10, 18, 0)
s = 112: (0, 7, 20, 33, 38, 28, 6, 29, 17, 12, 25, 0)
s = 113: (0, 6, 18, 48, 28, 21, 7, 28, 19, 14, 23, 0)
s = 114: (0, 11, 9, 32, 27, 22, 8, 34, 20, 10, 16, 0)
s = 115: (0, 10, 11, 29, 19, 12, 5, 63, 26, 8, 16, 0)
s = 116: (0, 6, 13, 45, 18, 21, 7, 39, 28, 12, 22, 0)
s = 117: (0, 8, 21, 37, 36, 16, 5, 47, 15, 14, 20, 0)
s = 118: (0, 9, 15, 33, 28, 14, 7, 34, 19, 10, 24, 0)
s = 119: (0, 14, 15, 33, 17, 24, 7, 37, 16, 17, 18, 0)
s = 120: (0, 6, 16, 32, 27, 22, 8, 34, 15, 11, 29, 0)
s = 121: (0, 8, 11, 30, 18, 11, 5, 31, 15, 9, 16, 0)
s = 122: (0, 7, 18, 22, 20, 17, 7, 23, 17, 7, 32, 0)
s = 123: (0, 8, 18, 45, 40, 22, 8, 46, 19, 9, 26, 0)
s = 124: (0, 7, 21, 23, 20, 13, 5, 50, 21, 12, 14, 0)
s = 125: (0, 11, 20, 32, 20, 27, 11, 24, 26, 13, 26, 0)
s = 126: (0, 6, 17, 23, 35, 13, 6, 35, 20, 21, 21, 0)
s = 127: (0, 10, 20, 28, 26, 14, 7, 24, 27, 10, 29, 0)
s = 128: (0, 8, 15, 38, 30, 21, 7, 53, 20, 15, 30, 0)
s = 129: (0, 7, 10, 38, 27, 22, 8, 29, 24, 8, 27, 0)
s = 130: (0, 10, 19, 22, 24, 31, 5, 45, 18, 15, 16, 0)
s = 131: (0, 6, 13, 23, 43, 17, 5, 31, 22, 17, 29, 0)
s = 132: (0, 8, 16, 24, 27, 18, 8, 46, 11, 16, 16, 0)
s = 133: (0, 6, 16, 22, 35, 14, 7, 44, 24, 9, 24, 0)
s = 134: (0, 7, 16, 30, 21, 13, 5, 35, 18, 10, 18, 0)
s = 135: (0, 8, 11, 16, 25, 10, 6, 47, 16, 24, 18, 0)
s = 136: (0, 6, 15, 39, 32, 16, 9, 37, 23, 20, 28, 0)
s = 137: (0, 9, 21, 33, 27, 15, 5, 61, 16, 13, 41, 0)
s = 138: (0, 6, 15, 31, 41, 17, 7, 43, 15, 11, 16, 0)
s = 139: (0, 7, 20, 18, 22, 13, 11, 29, 32, 12, 31, 0)
s = 140: (0, 8, 18, 18, 20, 28, 7, 37, 32, 15, 28, 0)
s = 141: (0, 7, 13, 35, 39, 15, 8, 29, 21, 9, 34, 0)
s = 142: (0, 8, 19, 28, 35, 11, 5, 44, 28, 9, 27, 0)
s = 143: (0, 6, 11, 25, 49, 15, 12, 39, 31, 17, 23, 0)
s = 144: (0, 6, 19, 35, 31, 18, 8, 23, 30, 13, 30, 0)
s = 145: (0, 12, 12, 21, 31, 15, 7, 52, 16, 13, 22, 0)
s = 146: (0, 5, 21, 48, 25, 17, 7, 55, 22, 14, 20, 0)
s = 147: (0, 6, 16, 16, 45, 20, 9, 32, 18, 18, 17, 0)
s = 148: (0, 6, 19, 23, 29, 18, 8, 29, 24, 19, 22, 0)
s = 149: (0, 6, 24, 32, 21, 20, 12, 36, 17, 17, 21, 0)
s = 150: (0, 9, 22, 21, 27, 14, 6, 30, 12, 11, 25, 0)
s = 151: (0, 8, 16, 48, 30, 26, 6, 50, 27, 12, 26, 0)
s = 152: (0, 6, 10, 23, 31, 21, 7, 35, 17, 11, 14, 0)
s = 153: (0, 11, 22, 17, 23, 23, 8, 24, 28, 10, 23, 0)
s = 154: (0, 8, 24, 36, 32, 26, 8, 52, 21, 12, 25, 0)
s = 155: (0, 5, 15, 31, 22, 12, 10, 37, 16, 13, 32, 0)
s = 156: (0, 9, 26, 32, 26, 23, 11, 53, 23, 11, 30, 0)
s = 157: (0, 11, 16, 40, 35, 16, 9, 59, 16, 22, 26, 0)
s = 158: (0, 6, 9, 28, 32, 17, 6, 48, 23, 11, 46, 0)
s = 159: (0, 7, 17, 23, 31, 13, 9, 42, 28, 15, 16, 0)
s = 160: (0, 6, 23, 36, 27, 26, 6, 40, 19, 10, 18, 0)
s = 161: (0, 5, 10, 30, 28, 18, 8, 37, 11, 15, 27, 0)
s = 162: (0, 6, 13, 34, 23, 14, 10, 26, 14, 10, 34, 0)
s = 163: (0, 8, 14, 23, 32, 22, 6, 39, 17, 10, 19, 0)
s = 164: (0, 7, 11, 47, 23, 14, 5, 34, 20, 9, 27, 0)
s = 165: (0, 5, 15, 25, 31, 16, 8, 33, 21, 13, 16, 0)
s = 166: (0, 6, 13, 43, 27, 21, 5, 28, 37, 12, 31, 0)
s = 167: (0, 5, 11, 24, 31, 16, 7, 38, 11, 10, 27, 0)
s = 168: (0, 11, 19, 17, 23, 11, 6, 32, 25, 14, 26, 0)
s = 169: (0, 7, 15, 50, 34, 11, 6, 26, 13, 12, 32, 0)
s = 170: (0, 10, 16, 20, 41, 26, 5, 34, 29, 21, 41, 0)
s = 171: (0, 10, 18, 27, 23, 12, 9, 32, 13, 12, 14, 0)
s = 172: (0, 8, 17, 29, 44, 13, 7, 24, 21, 16, 35, 0)
s = 173: (0, 7, 13, 31, 26, 10, 8, 47, 27, 14, 21, 0)
s = 174: (0, 9, 10, 31, 29, 16, 7, 47, 18, 9, 31, 0)
s = 175: (0, 5, 22, 37, 37, 18, 5, 40, 20, 13, 26, 0)
s = 176: (0, 9, 17, 34, 24, 16, 5, 33, 16, 12, 38, 0)
s = 177: (0, 5, 21, 18, 30, 24, 7, 35, 22, 11, 36, 0)
s = 178: (0, 12, 26, 46, 36, 15, 7, 21, 16, 14, 31, 0)
s = 179: (0, 10, 15, 29, 20, 15, 7, 34, 13, 10, 16, 0)
s = 180: (0, 6, 13, 33, 29, 21, 8, 28, 19, 13, 39, 0)
s = 181: (0, 8, 18, 32, 26, 10, 7, 50, 15, 8, 21, 0)
s = 182: (0, 5, 19, 26, 22, 11, 6, 31, 16, 9, 29, 0)
s = 183: (0, 6, 20, 19, 39, 12, 8, 46, 22, 10, 18, 0)
s = 184: (0, 7, 12, 23, 21, 18, 7, 33, 30, 17, 38, 0)
s = 185: (0, 8, 11, 18, 17, 12, 8, 28, 17, 11, 16, 0)
s = 186: (0, 4, 18, 22, 34, 23, 5, 31, 18, 11, 34, 0)
s = 187: (0, 4, 17, 24, 39, 25, 8, 35, 29, 18, 22, 0)
s = 188: (0, 8, 13, 40, 22, 18, 9, 29, 17, 10, 19, 0)
s = 189: (0, 8, 11, 36, 21, 18, 6, 24, 22, 11, 30, 0)
s = 190: (0, 10, 20, 17, 31, 22, 9, 54, 19, 13, 35, 0)
s = 191: (0, 6, 15, 23, 17, 11, 6, 40, 14, 14, 26, 0)
s = 192: (0, 9, 16, 27, 46, 20, 6, 30, 23, 11, 25, 0)
s = 193: (0, 7, 11, 26, 36, 9, 8, 35, 32, 11, 26, 0)
s = 194: (0, 5, 11, 30, 38, 21, 9, 51, 20, 8, 26, 0)
s = 195: (0, 7, 15, 26, 18, 12, 8, 31, 32, 18, 33, 0)
s = 196: (0, 11, 10, 24, 20, 16, 7, 35, 31, 12, 28, 0)
s = 197: (0, 7, 22, 21, 25, 24, 11, 21, 29, 17, 28, 0)
s = 198: (0, 10, 17, 23, 32, 14, 6, 42, 16, 21, 30, 0)
s = 199: (0, 6, 16, 21, 26, 22, 7, 41, 14, 11, 20, 0)
s = 200: (0, 6, 12, 31, 36, 11, 6, 28, 21, 9, 23, 0)
************************************************************************
ES/LS-VALUES:
jobnr.   ES(i)    LS(i)
------------------------------------------------------------------------
  0        0        0
  1        0       63
  2        0       50
  3        0       53
  4        5       56
  5        5       65
  6        5       59
  7        7       61
  8       18       73
  9        2       65
 10       17       69
 11       24       77
************************************************************************
BIG-M-VALUES:
M1 = 74, M2 = 314
************************************************************************
